11541
11541
12282
12585
13236
13236
13236
13236
13629
13691
13848
13848
13994
14039
14039
14039
14039
14039
14039
14039
14039
14039
14039
14039
14039
14039
14039
14039
14039
14039
14039
14039
14039
14039
14039
14039
14039
14039
14039
14039
14039
14039
14039
14039
14039
14039
14039
14039
14039
14039
14039
14039
14039
14039
14039
14039
14039
14039
14039
14039
14039
14039
14039
14039
14039
14039
14039
14039
14039
14039
14039
14039
14039
14039
14039
14039
14039
14039
14039
14039
14039
14039
14039
14039
14039
14039
14039
14039
14039
14039
14039
14039
14039
14039
14039
14039
14039
14039
14039
